p tw 85 850
1 2
1 13
1 24
1 35
1 15
1 16
1 17
1 18
1 19
1 20
1 39
1 40
1 41
1 42
1 43
1 62
1 63
1 64
1 65
1 66
2 13
2 24
2 35
2 46
2 57
2 68
2 79
2 85
2 3
2 4
2 5
2 6
2 7
2 8
2 9
2 10
2 11
2 12
2 14
13 24
13 35
13 21
13 22
13 23
13 25
13 26
13 27
13 51
13 52
13 53
13 54
13 55
13 80
13 81
13 82
13 83
13 84
24 35
24 28
24 29
24 30
24 31
24 32
24 56
24 58
24 59
24 60
24 61
24 67
24 69
24 70
24 71
24 72
24 73
35 33
35 34
35 36
35 37
35 38
35 44
35 45
35 47
35 48
35 49
35 50
35 74
35 75
35 76
35 77
35 78
46 68
46 5
46 10
46 15
46 17
46 21
46 23
46 29
46 34
46 40
46 44
46 47
46 52
46 58
46 63
46 67
46 70
46 75
46 81
57 79
57 85
57 3
57 15
57 17
57 22
57 25
57 26
57 27
57 40
57 45
57 48
57 49
57 50
57 63
57 69
57 71
57 72
57 73
68 5
68 10
68 16
68 18
68 19
68 20
68 22
68 25
68 26
68 27
68 28
68 30
68 31
68 32
68 33
68 36
68 37
68 38
79 85
79 3
79 16
79 18
79 19
79 20
79 21
79 23
79 52
79 56
79 59
79 60
79 61
79 74
79 76
79 77
79 78
79 81
85 3
85 29
85 33
85 36
85 37
85 38
85 51
85 53
85 54
85 55
85 58
85 62
85 64
85 65
85 66
85 67
85 70
3 28
3 30
3 31
3 32
3 34
3 39
3 41
3 42
3 43
3 44
3 47
3 75
3 80
3 82
3 83
3 84
4 6
4 7
4 8
4 15
4 17
4 28
4 30
4 31
4 32
4 40
4 51
4 53
4 54
4 55
4 63
4 74
4 76
4 77
4 78
5 10
5 39
5 41
5 42
5 43
5 45
5 48
5 49
5 50
5 51
5 53
5 54
5 55
5 56
5 59
5 60
5 61
6 7
6 8
6 21
6 23
6 33
6 36
6 37
6 38
6 39
6 41
6 42
6 43
6 52
6 69
6 71
6 72
6 73
6 81
7 8
7 16
7 18
7 19
7 20
7 29
7 45
7 48
7 49
7 50
7 58
7 67
7 70
7 80
7 82
7 83
7 84
8 22
8 25
8 26
8 27
8 34
8 44
8 47
8 56
8 59
8 60
8 61
8 62
8 64
8 65
8 66
8 75
9 11
9 12
9 14
9 15
9 17
9 33
9 36
9 37
9 38
9 40
9 56
9 59
9 60
9 61
9 63
9 80
9 82
9 83
9 84
10 62
10 64
10 65
10 66
10 69
10 71
10 72
10 73
10 74
10 76
10 77
10 78
10 80
10 82
10 83
10 84
11 12
11 14
11 21
11 23
11 28
11 30
11 31
11 32
11 45
11 48
11 49
11 50
11 52
11 62
11 64
11 65
11 66
11 81
12 14
12 22
12 25
12 26
12 27
12 29
12 39
12 41
12 42
12 43
12 58
12 67
12 70
12 74
12 76
12 77
12 78
14 16
14 18
14 19
14 20
14 34
14 44
14 47
14 51
14 53
14 54
14 55
14 69
14 71
14 72
14 73
14 75
15 16
15 21
15 22
15 28
15 33
15 39
15 44
15 45
15 51
15 56
15 62
15 67
15 69
15 74
15 80
16 23
16 25
16 31
16 38
16 39
16 47
16 48
16 54
16 61
16 62
16 70
16 71
16 77
16 84
17 18
17 23
17 25
17 29
17 30
17 34
17 36
17 42
17 49
17 54
17 60
17 66
17 73
17 78
17 84
18 21
18 22
18 32
18 37
18 42
18 50
18 51
18 58
18 59
18 66
18 72
18 75
18 76
18 80
19 27
19 28
19 34
19 36
19 43
19 49
19 52
19 53
19 56
19 63
19 64
19 67
19 69
19 78
19 83
20 26
20 29
20 30
20 33
20 40
20 41
20 44
20 45
20 55
20 60
20 65
20 73
20 74
20 81
20 82
21 25
21 30
21 36
21 41
21 44
21 48
21 53
21 59
21 64
21 67
21 71
21 76
21 82
22 23
22 32
22 37
22 41
22 45
22 47
22 55
22 60
22 64
22 69
22 70
22 78
22 83
23 28
23 29
23 33
23 34
23 43
23 50
23 55
23 61
23 65
23 72
23 77
23 83
25 31
25 38
25 43
25 49
25 53
25 56
25 58
25 65
25 73
25 74
25 75
25 82
26 30
26 33
26 34
26 42
26 50
26 51
26 52
26 59
26 62
26 63
26 67
26 71
26 77
26 84
27 28
27 29
27 36
27 39
27 40
27 44
27 48
27 54
27 61
27 66
27 72
27 76
27 80
27 81
28 36
28 42
28 47
28 50
28 51
28 59
28 65
28 70
28 73
28 74
28 82
29 32
29 34
29 38
29 39
29 45
29 51
29 56
29 64
29 71
29 76
29 82
30 33
30 39
30 48
30 54
30 58
30 61
30 64
30 69
30 75
30 78
30 83
31 34
31 38
31 41
31 45
31 52
31 55
31 60
31 63
31 66
31 67
31 72
31 76
31 80
32 37
32 40
32 43
32 44
32 49
32 53
32 56
32 62
32 71
32 77
32 81
32 84
33 43
33 47
33 49
33 53
33 56
33 66
33 70
33 72
33 76
33 80
34 37
34 41
34 48
34 53
34 59
34 62
34 69
34 74
34 80
36 41
36 45
36 55
36 58
36 60
36 62
36 71
36 75
36 77
36 84
37 39
37 48
37 52
37 54
37 61
37 63
37 65
37 67
37 73
37 74
37 82
38 40
38 42
38 44
38 50
38 51
38 59
38 64
38 69
38 78
38 81
38 83
39 50
39 52
39 53
39 60
39 62
39 73
39 75
39 76
39 83
40 41
40 47
40 48
40 52
40 53
40 58
40 59
40 65
40 72
40 77
40 83
41 49
41 51
41 61
41 65
41 70
41 71
41 78
41 80
42 47
42 48
42 55
42 56
42 66
42 67
42 69
42 77
42 81
42 82
43 44
43 45
43 54
43 58
43 59
43 63
43 64
43 72
43 74
43 84
44 50
44 55
44 61
44 66
44 67
44 73
44 78
44 84
45 52
45 54
45 59
45 66
45 69
45 75
45 77
45 82
47 49
47 52
47 54
47 58
47 60
47 64
47 71
47 76
47 82
48 55
48 56
48 64
48 70
48 72
48 74
48 84
49 51
49 61
49 62
49 67
49 73
49 76
49 81
49 83
50 53
50 58
50 60
50 63
50 65
50 71
50 78
50 80
51 52
51 61
51 64
51 72
51 74
51 75
51 84
52 56
52 58
52 66
52 73
52 78
52 84
53 60
53 66
53 69
53 70
53 77
53 82
54 59
54 65
54 67
54 71
54 78
54 80
54 81
55 56
55 58
55 62
55 63
55 73
55 76
55 83
56 65
56 71
56 75
56 78
56 80
58 61
58 62
58 69
58 74
58 80
59 62
59 70
59 73
59 76
59 83
60 64
60 67
60 72
60 74
60 81
60 84
61 63
61 66
61 69
61 77
61 82
62 72
62 78
62 81
62 82
63 64
63 70
63 71
63 75
63 76
63 81
63 82
64 73
64 77
64 80
65 67
65 69
65 75
65 76
65 84
66 70
66 71
66 74
66 83
67 72
67 77
67 83
69 76
69 81
69 84
70 73
70 75
70 78
70 81
70 84
71 74
71 83
72 75
72 78
72 82
73 77
73 80
74 81
74 83
75 77
75 81
75 83
76 84
77 80
78 82
80 81
